70 5532175
55 15 54 5 31 28 7 24 23 58 50 59 38 12 61 1 17 9 16 56 40 11 33 10 63 65 19 8 29 46 20 70 45 62 35 49 34 66 18 43 6 51 26 21 36 47 67 69 37 32 42 60 48 30 44 57 68 27 64 13 52 4 22 53 39 14 3 25 41 2 
